
List of user-set options:

                                    Name   Value                used
                           linear_solver = ma57                  yes
                  ma57_automatic_scaling = yes                   yes
                                max_iter = 1000                  yes
                             mu_strategy = adaptive              yes
                             output_file = Reusable-Launch-Vehicle-Entry-ProblemIPOPTinfo.txt  yes
                             print_level = 5                     yes
                      print_user_options = yes                   yes
                                     tol = 1e-007                yes
This is Ipopt version 3.11.0, running with linear solver ma57.

Number of nonzeros in equality constraint Jacobian...:   117284
Number of nonzeros in inequality constraint Jacobian.:      874
Number of nonzeros in Lagrangian Hessian.............:    26087

Reallocating memory for MA57: lfact (1216834)
Total number of variables............................:     5242
                     variables with only lower bounds:        0
                variables with lower and upper bounds:     5242
                     variables with only upper bounds:        0
Total number of equality constraints.................:     4149
Total number of inequality constraints...............:      438
        inequality constraints with only lower bounds:        0
   inequality constraints with lower and upper bounds:      438
        inequality constraints with only upper bounds:        0

iter    objective    inf_pr   inf_du lg(mu)  ||d||  lg(rg) alpha_du alpha_pr  ls
   0 -6.4858998e+001 1.32e+000 1.55e+000   0.0 0.00e+000    -  0.00e+000 0.00e+000   0
   1 -6.4856327e+001 1.32e+000 9.12e+003  -0.1 2.05e+000   2.0 9.37e-001 2.55e-004h  1
   2 -6.4507851e+001 1.32e+000 1.80e+004   1.9 1.15e+002   1.5 1.58e-003 3.00e-003h  1
   3 -6.4486414e+001 1.32e+000 1.05e+006   2.0 7.76e+001   2.9 4.49e-003 1.24e-004h  1
   4 -6.4186904e+001 1.31e+000 9.12e+008   2.1 1.02e+002   3.3 1.00e+000 1.27e-003h  1
   5 -6.4130205e+001 1.31e+000 9.07e+008   3.1 1.23e+003    -  1.02e-002 1.27e-004h  4
   6 -6.4085892e+001 1.31e+000 8.97e+008   3.1 1.23e+003    -  2.23e-002 1.18e-004h  6
   7 -6.4071589e+001 1.31e+000 8.89e+008   3.1 1.26e+003    -  2.91e-002 3.27e-005h 10
   8 -6.4053952e+001 1.31e+000 8.93e+008   3.1 1.25e+003    -  2.01e-002 4.44e-005h 10
   9 -6.4035099e+001 1.31e+000 9.02e+008   3.1 1.23e+003    -  1.32e-002 4.99e-005h 10
iter    objective    inf_pr   inf_du lg(mu)  ||d||  lg(rg) alpha_du alpha_pr  ls
  10 -6.4016409e+001 1.31e+000 9.14e+008   3.1 1.23e+003    -  1.03e-002 4.92e-005h 10
  11 -6.3997297e+001 1.31e+000 9.41e+008   3.1 1.22e+003    -  1.59e-002 4.94e-005h 10
  12 -6.3977538e+001 1.31e+000 9.61e+008   3.1 1.21e+003    -  7.75e-003 5.08e-005h 10
  13 -6.3966669e+001 1.31e+000 9.96e+008   3.1 1.19e+003    -  1.01e-002 2.93e-005h 10
  14 -6.3955313e+001 1.31e+000 1.04e+009   3.1 1.18e+003    -  8.96e-003 3.00e-005h 10
  15 -5.7220249e+001 1.29e+000 9.82e+008   3.1 1.18e+003    -  1.08e-002 1.72e-002w  1
  16 -5.6629797e+001 1.29e+000 2.63e+009   2.6 7.25e+001   5.5 1.38e-002 1.87e-003h  1
  17 -5.6120843e+001 1.29e+000 6.70e+009   2.6 1.09e+002   5.9 9.86e-003 2.10e-003h  1
  18 -5.5978606e+001 1.28e+000 1.45e+010   2.6 1.86e+002   6.4 4.53e-003 1.10e-003h  1
  19 -5.5957594e+001 1.28e+000 3.22e+010   2.6 2.71e+002   6.8 2.60e-003 5.43e-004h  1
iter    objective    inf_pr   inf_du lg(mu)  ||d||  lg(rg) alpha_du alpha_pr  ls
  20 -5.5961919e+001 1.28e+000 7.00e+010   2.6 3.43e+002   7.2 1.49e-003 1.70e-004h  2
  21 -5.5979819e+001 1.28e+000 9.98e+010   2.6 5.65e+002   6.7 1.87e-003 7.50e-005h  4
  22 -5.6282608e+001 1.28e+000 1.19e+011   2.6 5.46e+002   7.2 1.32e-003 8.54e-004h  1
  23 -5.6348371e+001 1.28e+000 2.25e+011   2.6 5.91e+002   7.6 1.07e-003 1.67e-004h  1
  24 -5.6444814e+001 1.28e+000 2.74e+011   2.6 5.92e+002   8.0 3.94e-004 2.41e-004h  1
  25 -5.6469356e+001 1.28e+000 7.77e+011   2.6 5.85e+002   8.4 6.66e-004 6.38e-005h  1
  26 -5.6558440e+001 1.28e+000 5.70e+012   2.6 5.94e+002   8.9 2.41e-003 2.29e-004h  1
  27 -5.6603759e+001 1.28e+000 1.15e+013   2.6 6.86e+002   9.3 9.17e-004 9.01e-005h  1
  28 -5.6627748e+001 1.28e+000 7.05e+013   2.6 7.08e+002   9.7 3.08e-003 4.56e-005h  1
  29 -5.6633714e+001 1.28e+000 1.16e+014   2.6 7.47e+002  10.1 8.44e-004 9.75e-006h  3
iter    objective    inf_pr   inf_du lg(mu)  ||d||  lg(rg) alpha_du alpha_pr  ls
  30 -5.6664395e+001 1.28e+000 1.91e+014   2.6 7.95e+002   9.7 3.92e-003 4.87e-005h  1
  31 -5.6823527e+001 1.28e+000 2.04e+014   2.6 8.45e+002   9.2 2.17e-003 2.36e-004h  1
  32 -5.6851847e+001 1.28e+000 2.27e+014   2.6 8.43e+002   9.6 1.31e-003 4.36e-005h  1
  33 -5.7073732e+001 1.28e+000 2.33e+014   2.6 8.83e+002   9.1 1.27e-003 3.21e-004h  2
  34 -5.7229095e+001 1.28e+000 2.06e+014   2.6 7.72e+002  10.5 1.34e-005 2.24e-004h  1
  35 -5.7263736e+001 1.28e+000 2.87e+014   2.6 8.41e+002  10.9 3.30e-004 9.32e-005h  2
  36r-5.7263736e+001 1.28e+000 9.99e+002   2.6 0.00e+000  11.3 0.00e+000 4.11e-007R  9
  37r-5.6983554e+001 8.87e-001 8.93e+002  -3.5 5.75e+000    -  3.73e-001 3.08e-001f  1
  38 -5.6817130e+001 8.87e-001 7.95e+003   1.9 1.34e+005    -  1.78e-005 1.65e-006f  1
  39 -5.6697433e+001 8.87e-001 7.00e+003   1.9 3.76e+003    -  1.41e-005 6.35e-005f  1
iter    objective    inf_pr   inf_du lg(mu)  ||d||  lg(rg) alpha_du alpha_pr  ls
  40 -5.6394790e+001 8.86e-001 4.95e+003   1.9 3.47e+003    -  9.02e-005 1.92e-004f  1
  41 -5.5447898e+001 8.86e-001 5.82e+003   1.9 3.07e+003    -  6.55e-004 6.12e-004f  1
  42r-5.5447898e+001 8.86e-001 9.99e+002   1.9 0.00e+000  10.8 0.00e+000 3.33e-007R  2
  43r-5.7560847e+001 6.00e-001 2.42e+003   0.0 4.82e+000    -  7.23e-002 1.90e-001f  1
  44 -5.7654235e+001 6.00e-001 1.22e+003   1.2 1.04e+003    -  8.96e-003 2.04e-004f  1
  45 -5.7175523e+001 8.52e-001 1.22e+003   1.2 5.83e+002    -  1.61e-003 1.61e-003s 13
  46 -5.6457889e+001 8.51e-001 1.21e+003   1.2 7.74e+002    -  1.52e-003 1.52e-003s 13
  47r-5.6457889e+001 8.51e-001 9.99e+002   1.2 0.00e+000  10.4 0.00e+000 0.00e+000R  1
  48r-5.6680899e+001 5.76e-001 8.57e+002   0.4 4.44e+001    -  1.34e-001 1.92e-002f  1
  49 -5.6686201e+001 5.76e-001 6.95e+003   1.2 5.83e+002    -  2.03e-002 4.62e-005h  1
iter    objective    inf_pr   inf_du lg(mu)  ||d||  lg(rg) alpha_du alpha_pr  ls
  50 -5.6541168e+001 5.76e-001 2.90e+005   1.2 7.24e+002    -  4.56e-002 3.06e-004h  4
  51 -5.6531459e+001 5.76e-001 9.00e+005   1.2 8.09e+002    -  2.11e-002 2.38e-005h  8
  52r-5.6531459e+001 5.76e-001 9.98e+002   1.2 0.00e+000    -  0.00e+000 2.69e-007R 15
  53r-5.6977559e+001 4.63e-001 2.91e+003   0.4 5.00e+000    -  5.69e-001 1.06e-001f  1
  54 -5.7056528e+001 4.63e-001 2.71e+003   1.2 7.51e+002    -  1.92e-002 2.51e-004f  1
  55r-5.7056528e+001 4.63e-001 8.56e+002   1.2 0.00e+000    -  0.00e+000 3.46e-007R 11
  56r-5.6936762e+001 3.65e-001 1.99e+003   0.0 4.92e+000    -  4.88e-001 1.01e-001f  1
  57r-5.7090155e+001 3.45e-001 2.52e+003  -5.1 5.70e+000    -  2.50e-001 3.67e-002f  1
  58r-5.7938006e+001 3.04e-001 2.55e+003  -0.7 1.71e+001    -  1.87e-001 8.64e-002f  1
  59r-5.7924665e+001 3.11e-001 4.09e+005  -5.2 3.00e-002   6.0 8.76e-003 3.60e-001f  1
iter    objective    inf_pr   inf_du lg(mu)  ||d||  lg(rg) alpha_du alpha_pr  ls
  60r-5.7918787e+001 3.57e-001 3.52e+005   1.3 5.44e-002   5.5 1.00e+000 1.38e-001f  1
  61r-5.7878835e+001 8.50e-001 6.41e+004   1.5 4.61e-002   5.0 8.06e-001 9.19e-001f  1
  62r-5.7898947e+001 1.01e+000 4.10e+004   1.4 1.03e-001   4.6 5.65e-001 7.40e-001f  1
  63 -5.7896922e+001 1.01e+000 7.46e+003  -0.4 6.21e+000    -  8.79e-001 2.34e-004h  1
  64 -5.7864777e+001 1.01e+000 1.79e+004  -6.3 7.00e+002    -  7.32e-003 7.98e-005h  7
  65 -5.7798315e+001 1.01e+000 4.22e+006   1.5 5.39e+002    -  9.98e-001 1.65e-004h  4
  66 -5.7760924e+001 1.01e+000 1.34e+007   3.1 1.01e+003    -  3.07e-002 5.03e-005h  8
  67 -5.7738503e+001 1.01e+000 1.41e+008   3.1 8.16e+002    -  1.45e-001 5.09e-005h  8
  68r-5.7738503e+001 1.01e+000 9.84e+002   3.1 0.00e+000    -  0.00e+000 3.20e-007R 16
  69r-5.7804135e+001 1.53e-001 2.02e+002  -3.1 1.41e+000    -  7.94e-001 9.62e-001f  1
iter    objective    inf_pr   inf_du lg(mu)  ||d||  lg(rg) alpha_du alpha_pr  ls
  70r-5.7804135e+001 1.53e-001 3.47e+005   1.1 3.65e-002   6.0 9.22e-001 8.59e-003f  1
  71r-5.7919327e+001 1.45e-001 1.56e+005   1.2 1.91e+001    -  5.58e-001 3.94e-002f  1
  72r-5.7918230e+001 1.40e-001 5.12e+004   0.9 1.90e-002   5.5 1.00e+000 1.00e+000f  1
  73r-5.7918232e+001 1.40e-001 3.74e+007   1.8 1.11e-001   7.8 1.00e+000 5.69e-001f  1
  74r-5.7918197e+001 1.40e-001 8.57e+006   1.7 3.78e-002   7.3 3.70e-002 7.73e-001f  1
  75r-5.7918211e+001 1.39e-001 6.82e+004   1.3 1.08e-002   6.8 1.00e+000 1.00e+000f  1
  76r-5.7918336e+001 1.35e-001 2.94e+004   1.6 1.39e-002   6.3 9.89e-001 1.00e+000f  1
  77r-5.7918366e+001 1.34e-001 1.03e+003  -0.3 1.47e-003   5.8 1.00e+000 1.00e+000f  1
  78r-5.7918381e+001 1.34e-001 1.03e+003  -2.1 4.41e-003   5.4 1.00e+000 1.00e+000f  1
  79r-5.7918388e+001 1.34e-001 1.04e+003  -3.2 1.37e-002   4.9 1.00e+000 3.01e-001f  1
iter    objective    inf_pr   inf_du lg(mu)  ||d||  lg(rg) alpha_du alpha_pr  ls
  80r-5.7918405e+001 1.33e-001 1.07e+003  -3.8 4.52e-002   4.4 1.00e+000 2.16e-001f  1
  81 -5.7918403e+001 1.33e-001 4.21e+003  -0.4 2.77e+000    -  8.91e-001 4.19e-004h  1
  82 -5.6282248e+001 1.38e-001 9.73e+003  -6.3 7.41e+002    -  9.23e-003 3.96e-003h  1
  83 -5.5863323e+001 1.38e-001 3.91e+005   1.6 1.19e+003    -  9.58e-002 5.16e-004f  3
  84 -5.5857865e+001 1.38e-001 6.22e+005   0.5 1.02e+003    -  1.20e-002 1.26e-005h 10
  85r-5.5857865e+001 1.38e-001 9.96e+002   0.5 0.00e+000    -  0.00e+000 3.91e-007R 15
  86r-5.6556279e+001 1.25e-001 5.61e+003   0.6 9.45e+000    -  3.66e-001 5.52e-002f  1
  87 -5.6556674e+001 1.25e-001 3.22e+003  -0.4 3.37e+000    -  8.59e-001 5.28e-004h  1
  88 -5.6524542e+001 1.25e-001 1.32e+004  -6.3 7.42e+002    -  8.45e-003 8.36e-005h  6
  89 -5.6512443e+001 1.25e-001 3.13e+005   1.4 9.99e+002    -  9.71e-002 2.28e-005h  8
iter    objective    inf_pr   inf_du lg(mu)  ||d||  lg(rg) alpha_du alpha_pr  ls
  90r-5.6512443e+001 1.25e-001 9.97e+002   2.2 0.00e+000    -  0.00e+000 3.78e-007R 15
  91r-5.5736628e+001 1.03e-001 4.23e+002  -4.1 5.19e+000    -  5.71e-001 6.72e-001f  1
  92r-5.5277313e+001 1.05e-001 7.02e+002  -0.5 1.00e-001   2.0 7.94e-001 5.33e-001f  1
  93r-5.4660206e+001 1.14e-001 3.87e+003   0.3 8.29e-001   1.5 1.60e-001 4.77e-001f  1
  94r-5.4601507e+001 1.12e-001 3.80e+003  -1.3 7.77e-002   2.9 2.71e-001 2.98e-002f  1
  95r-5.3510462e+001 1.15e-001 1.99e+003  -0.2 1.44e-001   2.4 5.78e-001 2.37e-001f  1
  96r-5.3510166e+001 1.13e-001 5.95e+005   1.3 4.91e-002   7.3 7.59e-001 4.79e-002h  1
  97r-5.3509127e+001 1.23e-001 5.29e+005  -4.8 3.19e-002   6.8 1.12e-001 1.73e-001f  1
  98r-5.3508816e+001 1.20e-001 4.40e+005   0.3 4.43e-002   6.4 1.62e-001 6.22e-002f  1
  99r-5.3505873e+001 1.39e-001 4.39e+005   0.1 4.44e-002   5.9 4.37e-002 5.94e-001f  1
iter    objective    inf_pr   inf_du lg(mu)  ||d||  lg(rg) alpha_du alpha_pr  ls
 100r-5.3505864e+001 1.39e-001 6.62e+006   2.0 1.96e-002   9.0 1.00e+000 4.74e-003h  1
 101r-5.3505812e+001 1.37e-001 5.29e+007   2.6 2.35e-002   9.4 1.00e+000 2.76e-002h  1
 102r-5.3505668e+001 1.31e-001 1.61e+008   3.8 2.36e-002   9.9 1.00e+000 8.19e-002f  1
 103r-5.3504286e+001 1.46e-001 4.65e+008   3.7 3.46e-002   9.4 2.05e-001 9.00e-001f  1
 104r-5.3504284e+001 1.45e-001 2.09e+009   4.9 1.77e-002  12.5 1.92e-001 1.17e-002h  1
 105r-5.3504284e+001 1.45e-001 1.60e+011   4.9 1.83e-002  13.9 1.70e-001 1.54e-003h  1
 106r-5.3504280e+001 1.30e-001 4.27e+011   4.9 1.84e-002  14.3 1.29e-001 2.41e-002h  1
 107r-5.3504272e+001 1.26e-001 4.89e+011   4.9 1.84e-002  13.8 8.09e-002 4.54e-002h  1
 108r-5.3504194e+001 1.22e-001 4.85e+013   4.9 1.63e-002  14.2 8.42e-003 5.03e-001f  1
 109r-5.3504193e+001 1.22e-001 4.83e+013   4.9 1.63e-002  15.6 1.05e-002 3.71e-003h  1
iter    objective    inf_pr   inf_du lg(mu)  ||d||  lg(rg) alpha_du alpha_pr  ls
 110r-5.3504193e+001 1.22e-001 4.83e+013   4.9 1.62e-002  16.0 2.82e-003 4.48e-005h  1
 111r-5.3504186e+001 1.15e-001 4.39e+013   4.9 1.62e-002  15.5 3.05e-003 8.98e-002f  1
 112r-5.3504186e+001 1.15e-001 4.39e+013   4.9 1.48e-002  16.8 2.93e-003 3.35e-004h  1
 113r-5.3504186e+001 1.15e-001 4.39e+013   4.9 1.47e-002  16.4 1.08e-003 2.42e-005h  1
 114r-5.3504186e+001 1.15e-001 4.38e+013   4.9 1.48e-002  16.8 3.31e-004 3.33e-003f  1
 115r-5.3504113e+001 1.13e-001 2.42e+015   4.9 1.47e-002  17.2 4.41e-004 1.00e+000f  1
 116r-5.3504113e+001 1.13e-001 2.41e+015   4.5 4.65e-002  16.7 5.45e-002 1.31e-003h  1
 117r-5.3504113e+001 1.13e-001 2.40e+015   3.8 4.64e-002  16.3 5.58e-002 4.96e-003h  1
 118r-5.3504113e+001 1.12e-001 2.39e+015   3.8 4.60e-002  15.8 7.13e-002 5.56e-003h  1
 119r-5.3504109e+001 1.06e-001 2.06e+015   3.8 4.50e-002  15.3 1.13e-001 1.39e-001f  1
iter    objective    inf_pr   inf_du lg(mu)  ||d||  lg(rg) alpha_du alpha_pr  ls
 120r-5.3504109e+001 1.06e-001 2.05e+015   3.8 3.64e-002  14.8 1.87e-001 1.28e-003h  1
 121r-5.3504109e+001 1.06e-001 2.05e+015   3.8 3.87e-002  15.3 2.91e-001 1.15e-004h  1
 122r-5.3504106e+001 9.76e-002 1.73e+015   3.8 3.57e-002  14.8 1.96e-001 1.60e-001h  1
 123r-5.3504106e+001 9.75e-002 1.72e+015   4.3 3.26e-002  15.2 1.00e+000 2.22e-003h  1
 124r-5.3504106e+001 9.57e-002 1.64e+015   4.9 3.03e-002  14.7 1.00e+000 4.64e-002h  1
 125r-5.3504105e+001 9.38e-002 1.56e+015   4.9 3.10e-002  15.2 8.63e-001 4.92e-002h  1
 126r-5.3504105e+001 9.38e-002 7.58e+015   4.2 6.92e-001  18.3 7.26e-005 1.12e-004h  1
 127r-5.3504105e+001 9.38e-002 7.58e+015   4.9 2.19e-002  18.7 0.00e+000 4.76e-007R  5
 128r-5.3504105e+001 9.38e-002 1.39e+009   4.9 1.13e-012  19.1 9.90e-001 1.00e+000f  1
 129r-5.3504105e+001 9.38e-002 1.58e+007   4.9 3.41e-012  18.7 9.90e-001 1.00e+000f  1
iter    objective    inf_pr   inf_du lg(mu)  ||d||  lg(rg) alpha_du alpha_pr  ls
 130r-5.3504105e+001 9.38e-002 4.22e+006   4.2 2.04e-012  18.2 9.90e-001 1.00e+000f  1
 131r-5.3504105e+001 9.38e-002 8.61e+005   3.5 1.23e-012  17.7 9.90e-001 1.00e+000f  1
 132r-5.3504105e+001 9.38e-002 1.38e+005   2.8 7.37e-013  17.2 9.96e-001 1.00e+000h  1
 133r-5.3504105e+001 9.38e-002 1.26e+005   2.8 2.21e-012  16.8 1.00e+000 1.00e+000h  1
 134r-5.3504105e+001 9.38e-002 1.26e+005   2.8 6.63e-012  16.3 1.00e+000 1.00e+000f  1
 135r-5.3504105e+001 9.38e-002 1.26e+005   2.8 1.99e-011  15.8 1.00e+000 1.00e+000f  1
 136r-5.3504105e+001 9.38e-002 1.26e+005   2.8 5.96e-011  15.3 1.00e+000 1.00e+000f  1
 137r-5.3504105e+001 9.38e-002 1.26e+005   2.8 1.79e-010  14.8 1.00e+000 1.00e+000f  1
 138r-5.3504105e+001 9.38e-002 1.26e+005   2.8 5.37e-010  14.4 1.00e+000 1.00e+000f  1
 139r-5.3504105e+001 9.38e-002 1.26e+005   2.8 1.61e-009  13.9 1.00e+000 1.00e+000f  1
iter    objective    inf_pr   inf_du lg(mu)  ||d||  lg(rg) alpha_du alpha_pr  ls
 140r-5.3504105e+001 9.38e-002 1.26e+005   2.8 4.83e-009  13.4 1.00e+000 1.00e+000f  1
 141r-5.3504105e+001 9.38e-002 1.26e+005   2.8 1.45e-008  12.9 1.00e+000 1.00e+000f  1
 142r-5.3504105e+001 9.38e-002 1.26e+005   2.8 4.35e-008  12.5 1.00e+000 1.00e+000f  1
 143r-5.3504105e+001 9.38e-002 1.26e+005   2.8 1.30e-007  12.0 1.00e+000 1.00e+000f  1
 144r-5.3504105e+001 9.38e-002 1.26e+005   2.8 3.91e-007  11.5 1.00e+000 1.00e+000f  1
 145r-5.3504106e+001 9.38e-002 1.26e+005   2.8 1.17e-006  11.0 1.00e+000 1.00e+000f  1
 146r-5.3504109e+001 9.38e-002 1.25e+005   2.8 3.51e-006  10.6 1.00e+000 1.00e+000f  1
 147r-5.3504117e+001 9.38e-002 1.24e+005   2.8 1.05e-005  10.1 1.00e+000 1.00e+000f  1
 148r-5.3504142e+001 9.38e-002 1.22e+005   2.8 3.07e-005   9.6 1.00e+000 1.00e+000f  1
 149r-5.3504216e+001 9.38e-002 1.15e+005   2.8 8.71e-005   9.1 1.00e+000 1.00e+000f  1
iter    objective    inf_pr   inf_du lg(mu)  ||d||  lg(rg) alpha_du alpha_pr  ls
 150r-5.3504437e+001 9.38e-002 1.75e+005   2.8 2.28e-004   8.6 1.00e+000 1.00e+000f  1
 151r-5.3504447e+001 9.37e-002 2.42e+006   2.8 1.65e-002   9.1 1.00e+000 1.25e-001h  4
 152r-5.3504451e+001 9.40e-002 2.60e+008   2.8 2.22e-003  10.4 1.00e+000 1.00e+000f  1
 153r-5.3504460e+001 1.38e-001 2.72e+010   2.8 1.66e-002  10.8 7.89e-001 1.00e+000H  1
 154r-5.3504446e+001 1.34e-001 7.80e+009   2.8 2.88e-002  10.3 5.34e-001 7.09e-001h  1
 155r-5.3504442e+001 1.54e-001 1.42e+008   2.8 1.91e-002   9.9 1.00e+000 1.00e+000f  1
 156r-5.3504480e+001 1.60e-001 3.78e+007   2.8 1.53e-002   9.4 6.63e-001 1.00e+000f  1
 157r-5.3504597e+001 9.50e-002 1.20e+007   2.8 1.46e-002   8.9 1.00e+000 1.00e+000f  1
 158r-5.3504951e+001 9.50e-002 9.28e+004   2.8 3.37e-004   8.4 1.00e+000 1.00e+000f  1
 159r-5.3506002e+001 9.49e-002 8.11e+004   2.8 8.84e-004   8.0 1.00e+000 1.00e+000f  1
iter    objective    inf_pr   inf_du lg(mu)  ||d||  lg(rg) alpha_du alpha_pr  ls
 160r-5.3506619e+001 9.47e-002 8.22e+004   2.1 4.28e-004   7.5 1.00e+000 1.00e+000f  1
 161r-5.3508476e+001 9.44e-002 3.57e+006   2.1 1.42e-003   7.0 1.00e+000 1.00e+000f  1
 162r-5.3513813e+001 9.26e-002 1.09e+005   2.1 3.03e-003   6.5 1.00e+000 1.00e+000f  1
 163r-5.3528110e+001 9.11e-002 2.18e+004   2.1 6.26e-003   6.1 1.00e+000 1.00e+000f  1
 164 -5.3527504e+001 9.10e-002 4.36e+003  -0.4 3.87e+000    -  8.53e-001 3.87e-004h  1
 165 -5.3498314e+001 9.10e-002 1.23e+004  -6.3 6.25e+002    -  8.24e-003 1.37e-004h  6
 166 -5.3490026e+001 9.10e-002 3.08e+006   1.6 3.96e+002    -  9.20e-001 1.08e-004h  5
 167 -5.3482247e+001 9.10e-002 6.61e+006   1.3 9.54e+002    -  2.95e-002 2.14e-005h 10
 168 -5.3479401e+001 9.10e-002 2.65e+008   2.9 9.42e+002    -  1.00e+000 1.05e-005h 11
 169r-5.3479401e+001 9.10e-002 9.92e+002   3.1 0.00e+000    -  0.00e+000 3.15e-007R 16
iter    objective    inf_pr   inf_du lg(mu)  ||d||  lg(rg) alpha_du alpha_pr  ls
 170r-5.3483761e+001 1.32e-001 1.11e+002  -3.1 1.43e+000    -  8.88e-001 9.65e-001f  1
 171r-5.3483751e+001 1.16e-001 1.52e+006  -0.2 1.52e-002   8.0 7.37e-001 1.00e+000f  1
 172r-5.3483744e+001 1.19e-001 1.22e+009   0.9 2.20e-002  10.2 1.00e+000 1.00e+000f  1
 173r-5.3483741e+001 1.28e-001 9.62e+007   0.7 1.69e-002   9.8 1.00e+000 1.00e+000h  1
 174r-5.3483739e+001 9.31e-002 2.70e+007   0.9 1.42e-002   9.3 1.00e+000 1.00e+000f  1
 175r-5.3483739e+001 1.37e-001 9.55e+006   0.5 1.51e-002   8.8 1.00e+000 1.00e+000f  1
 176r-5.3483741e+001 1.26e-001 3.78e+006   0.8 1.79e-002   8.3 1.00e+000 1.00e+000f  1
 177r-5.3483744e+001 1.28e-001 1.14e+006   0.4 1.62e-002   7.8 1.00e+000 1.00e+000f  1
 178r-5.3483770e+001 9.38e-002 3.33e+005   0.7 1.42e-002   7.4 1.00e+000 1.00e+000f  1
 179r-5.3483803e+001 1.38e-001 1.19e+005   0.3 1.52e-002   6.9 1.00e+000 1.00e+000f  1
iter    objective    inf_pr   inf_du lg(mu)  ||d||  lg(rg) alpha_du alpha_pr  ls
 180r-5.3483803e+001 8.43e-002 3.84e+007   0.1 1.67e-002   9.1 1.00e+000 1.00e+000f  1
 181 -5.3483481e+001 8.42e-002 4.25e+003  -0.4 3.60e+000    -  8.59e-001 4.00e-004h  1
 182 -5.3479470e+001 8.42e-002 1.24e+004  -6.3 6.76e+002    -  8.72e-003 1.75e-005h  9
 183r-5.3479470e+001 8.42e-002 1.00e+003   1.7 0.00e+000    -  0.00e+000 4.31e-007R 13
 184r-5.4294193e+001 1.29e-001 1.82e+003  -0.6 8.43e+000    -  7.38e-001 1.57e-001f  1
 185r-6.7599485e+001 8.65e-001 2.59e+003   0.3 1.26e+002    -  3.35e-001 2.06e-001f  1
 186r-6.7148678e+001 5.87e-001 7.87e+004   1.1 6.60e-002   6.0 7.50e-001 3.22e-001f  1
 187r-6.6962710e+001 5.06e-001 3.50e+005   2.2 7.18e-002   5.5 1.00e+000 2.38e-001f  1
 188r-6.6770647e+001 6.58e-001 6.35e+006   1.9 3.39e-002   8.7 9.99e-001 2.62e-001h  1
 189r-6.6768588e+001 6.60e-001 3.77e+007   1.6 2.50e-002  10.9 1.00e+000 3.56e-003h  1
iter    objective    inf_pr   inf_du lg(mu)  ||d||  lg(rg) alpha_du alpha_pr  ls
 190r-6.6754943e+001 6.68e-001 1.90e+009   2.3 1.13e-001  10.4 1.00e+000 3.03e-002h  1
 191r-6.6414811e+001 8.79e-001 9.79e+010   2.3 2.42e-002  11.7 1.00e+000 7.98e-001h  1
 192r-6.6341023e+001 9.32e-001 8.37e+011   2.5 1.65e-002  12.2 1.00e+000 9.69e-001f  1
 193r-6.6338795e+001 9.34e-001 2.97e+011   2.8 1.75e-002  11.7 1.00e+000 9.13e-001h  1
 194r-6.6338649e+001 9.34e-001 7.76e+012   2.9 2.20e-002  13.9 8.48e-003 8.58e-001F  1
 195r-6.6338584e+001 9.34e-001 4.26e+015   2.7 1.86e-002  17.1 1.52e-002 8.33e-001h  1
 196r-6.6338556e+001 9.34e-001 4.75e+014   3.2 1.25e-002  16.6 1.00e+000 1.00e+000f  1
 197r-6.6338554e+001 9.34e-001 4.18e+014   3.1 1.28e-002  16.1 5.03e-001 1.22e-001h  1
 198r-6.6338554e+001 9.34e-001 4.17e+014   2.9 1.12e-002  15.6 1.00e+000 1.41e-003h  1
 199r-6.6338554e+001 9.34e-001 4.17e+014   2.3 1.11e-002  15.1 1.00e+000 2.58e-004h  1
iter    objective    inf_pr   inf_du lg(mu)  ||d||  lg(rg) alpha_du alpha_pr  ls
 200r-6.6338564e+001 9.34e-001 1.16e+013   2.0 1.15e-002  14.7 1.00e+000 1.00e+000H  1
 201r-6.6338562e+001 9.34e-001 8.47e+015   4.0 1.32e-002  17.8 1.14e-004 1.00e+000f  1
 202r-6.6338562e+001 9.34e-001 8.46e+015   2.0 1.93e-002  17.3 1.00e+000 5.00e-004H  1
 203r-6.6338561e+001 9.34e-001 8.27e+015   4.1 1.90e-002  16.9 1.00e+000 2.05e-002H  1
 204r-6.6338560e+001 9.34e-001 8.87e+014   4.0 1.85e-002  16.4 1.00e+000 1.00e+000H  1
 205r-6.6338569e+001 9.34e-001 3.05e+017   4.3 5.81e-002  18.6 3.08e-003 6.89e-002f  3
 206r-6.6338569e+001 9.34e-001 3.05e+017   3.8 1.92e-002  18.1 1.00e+000 4.15e-004h  1
 207r-6.6338562e+001 9.34e-001 2.23e+017   3.6 1.92e-002  17.7 1.00e+000 2.70e-001f  2
 208r-6.6338551e+001 9.34e-001 1.38e+016   3.5 1.24e-002  17.2 1.00e+000 1.00e+000f  1
 209r-6.6338551e+001 9.34e-001 3.77e+016   3.4 5.13e-002  19.4 2.37e-001 2.89e-004h  1
iter    objective    inf_pr   inf_du lg(mu)  ||d||  lg(rg) alpha_du alpha_pr  ls
 210r-6.6338533e+001 9.34e-001 6.29e+018   3.4 1.35e-002  19.8 9.23e-002 1.00e+000f  1
 211r-6.6338533e+001 9.34e-001 6.26e+018   3.2 1.26e-002  19.4 1.00e+000 6.01e-003h  1
 212r-6.6338519e+001 9.34e-001 9.61e+016   2.8 1.26e-002  18.9 1.00e+000 1.00e+000h  1
WARNING: Problem in step computation; switching to emergency mode.
 213r-6.6338519e+001 9.34e-001 9.61e+016   2.8 1.26e-002  20.0 0.00e+000 0.00e+000R  1
WARNING: Problem in step computation; switching to emergency mode.
Restoration phase is called at point that is almost feasible,
  with constraint violation 4.884981e-014. Abort.
Restoration phase in the restoration phase failed.

Number of Iterations....: 213

                                   (scaled)                 (unscaled)
Objective...............: -1.4329226555634369e+001  -6.6338518767177860e+001
Dual infeasibility......:  8.3519355140583200e+016   3.8666080733000774e+017
Constraint violation....:  1.0967978291002214e-001   9.3404074872146126e-001
Complementarity.........:  8.8207554340567538e+002   4.0836527193630836e+003
Overall NLP error.......:  9.9978305511379687e+004   3.8666080733000774e+017


Number of objective function evaluations             = 591
Number of objective gradient evaluations             = 86
Number of equality constraint evaluations            = 592
Number of inequality constraint evaluations          = 592
Number of equality constraint Jacobian evaluations   = 225
Number of inequality constraint Jacobian evaluations = 225
Number of Lagrangian Hessian evaluations             = 214
Total CPU secs in IPOPT (w/o function evaluations)   =     72.727
Total CPU secs in NLP function evaluations           =    121.549

EXIT: Restoration Failed!
